
Gurobi 10.0.1 (linux64) logging started Sun Nov 26 16:15:26 2023

Set parameter LogFile to value "ArtificialInstance/ExperimentV2/S3T3K3/BaSp/gurobi91.txt"
Gurobi Optimizer version 10.0.1 build v10.0.1rc0 (linux64)

CPU model: AMD EPYC 7H12 64-Core Processor, instruction set [SSE2|AVX|AVX2]
Thread count: 128 physical cores, 128 logical processors, using up to 32 threads

Academic license 656792 - for non-commercial use only - registered to b.___@student.vu.nl
Optimize a model with 2760 rows, 4160 columns and 13920 nonzeros
Model fingerprint: 0x9f566af5
Variable types: 0 continuous, 4160 integer (4160 binary)
Coefficient statistics:
  Matrix range     [1e+00, 1e+00]
  Objective range  [1e+00, 2e+01]
  Bounds range     [1e+00, 1e+00]
  RHS range        [1e+00, 1e+00]
Found heuristic solution: objective 641.0328958
Presolve time: 0.02s
Presolved: 2760 rows, 4160 columns, 13920 nonzeros
Variable types: 0 continuous, 4160 integer (4160 binary)

Root relaxation: objective 4.788830e+01, 2075 iterations, 0.05 seconds (0.04 work units)

    Nodes    |    Current Node    |     Objective Bounds      |     Work
 Expl Unexpl |  Obj  Depth IntInf | Incumbent    BestBd   Gap | It/Node Time

     0     0   47.88830    0  616  641.03290   47.88830  92.5%     -    0s
H    0     0                     368.5830476   47.88830  87.0%     -    0s
H    0     0                     221.4953900   47.88830  78.4%     -    0s
H    0     0                     102.9688490   47.88830  53.5%     -    0s
     0     0   53.61375    0  582  102.96885   53.61375  47.9%     -    0s
H    0     0                      92.9154952   53.61375  42.3%     -    0s
H    0     0                      84.9066420   58.79353  30.8%     -    0s
H    0     0                      75.2348076   58.79353  21.9%     -    0s
     0     0   58.79353    0  913   75.23481   58.79353  21.9%     -    0s
     0     0   62.03180    0  912   75.23481   62.03180  17.5%     -    0s
     0     0   62.06499    0  869   75.23481   62.06499  17.5%     -    0s
     0     0   62.06775    0  869   75.23481   62.06775  17.5%     -    0s
     0     0   63.35281    0  925   75.23481   63.35281  15.8%     -    0s
     0     0   63.35858    0  913   75.23481   63.35858  15.8%     -    1s
     0     0   63.35912    0  912   75.23481   63.35912  15.8%     -    1s
     0     0   64.55934    0  756   75.23481   64.55934  14.2%     -    1s
     0     0   64.68968    0  900   75.23481   64.68968  14.0%     -    1s
     0     0   64.70878    0  886   75.23481   64.70878  14.0%     -    1s
     0     0   64.71131    0  899   75.23481   64.71131  14.0%     -    1s
     0     0   65.15741    0  859   75.23481   65.15741  13.4%     -    1s
     0     0   65.21703    0  912   75.23481   65.21703  13.3%     -    1s
     0     0   65.22567    0  946   75.23481   65.22567  13.3%     -    1s
     0     0   65.23209    0  937   75.23481   65.23209  13.3%     -    1s
     0     0   65.23731    0  951   75.23481   65.23731  13.3%     -    1s
     0     0   65.27431    0  950   75.23481   65.27431  13.2%     -    1s
     0     0   65.42529    0  965   75.23481   65.42529  13.0%     -    1s
     0     0   65.43322    0  975   75.23481   65.43322  13.0%     -    1s
     0     0   65.43323    0  986   75.23481   65.43323  13.0%     -    1s
     0     0   65.76196    0  891   75.23481   65.76196  12.6%     -    1s
     0     0   65.79681    0  913   75.23481   65.79681  12.5%     -    1s
     0     0   65.80992    0  922   75.23481   65.80992  12.5%     -    2s
     0     0   65.81112    0  926   75.23481   65.81112  12.5%     -    2s
     0     0   65.88818    0  903   75.23481   65.88818  12.4%     -    2s
H    0     0                      75.0527009   65.88818  12.2%     -    2s
     0     0   65.92027    0  910   75.05270   65.92027  12.2%     -    2s
     0     0   65.92032    0  915   75.05270   65.92032  12.2%     -    2s
     0     0   66.12907    0  905   75.05270   66.12907  11.9%     -    2s
     0     0   66.26333    0  882   75.05270   66.26333  11.7%     -    2s
     0     0   66.30890    0  947   75.05270   66.30890  11.7%     -    2s
     0     0   66.30912    0  927   75.05270   66.30912  11.6%     -    2s
     0     0   66.37721    0  879   75.05270   66.37721  11.6%     -    2s
     0     0   66.39568    0  853   75.05270   66.39568  11.5%     -    2s
     0     0   66.39568    0  864   75.05270   66.39568  11.5%     -    2s
     0     0   66.39568    0  863   75.05270   66.39568  11.5%     -    2s
     0     0   66.39568    0  812   75.05270   66.39568  11.5%     -    2s
     0     2   66.39568    0  803   75.05270   66.39568  11.5%     -    3s
   324    87   74.79704   13  187   75.05270   68.87730  8.23%   219    5s

Cutting planes:
  Gomory: 11
  Zero half: 203
  RLT: 130

Explored 794 nodes (143268 simplex iterations) in 5.80 seconds (4.31 work units)
Thread count was 32 (of 128 available processors)

Solution count 8: 75.0527 75.2348 84.9066 ... 641.033

Optimal solution found (tolerance 1.00e-04)
Best objective 7.505270093404e+01, best bound 7.505270093404e+01, gap 0.0000%
